LAMMPS (29 Aug 2024 - Update 1)
  using 4 OpenMP thread(s) per MPI task
# LAMMPS Input Script: Gradually lower velocity for atoms closer to the center

# --- Initialization ---
units lj          # Use Lennard-Jones units
atom_style ellipsoid
dimension 3       # 3D simulation
boundary f f p    # set boundary conditions: fixed (non-periodic) in x and y, periodic in z (standard for 2D)

# --- Define the box for the simulation ---
variable box_size equal 200
variable half_box equal ${box_size}/2
variable half_box equal 200/2
region box block 0 ${box_size} 0 ${box_size} -0.5 0.5 units box # Define simulation box boundaries
region box block 0 200 0 ${box_size} -0.5 0.5 units box 
region box block 0 200 0 200 -0.5 0.5 units box 
create_box 1 box                # create the simulation box with 1 atom type
Created orthogonal box = (0 0 -0.5) to (200 200 0.5)
  1 by 1 by 1 MPI processor grid
create_atoms 1 random ${molecules} 12345 NULL overlap 3.9 maxtry 50
create_atoms 1 random 1000 12345 NULL overlap 3.9 maxtry 50
Created 1000 atoms
  using lattice units in orthogonal box = (0 0 -0.5) to (200 200 0.5)
  create_atoms CPU = 0.014 seconds

# --- Define the variables for lj/expand ---
variable	epsilon equal ${var_epsilon}	# energy (strength of attraction between particles)
variable	epsilon equal 5.0	
variable	sigma equal 1.0     # distance where particles bond (potential energy is 0)
variable	delta equal 0.0     # radius difference between particles (for lj/expand)
variable	cutoff equal 2.0	# cutoff distance (particles farther than this value have the interaction ignored)

# Set ellipsoid as a sphere
set type 1 shape 0.5 0.5 0.5
Setting atom values ...
  1000 settings made for shape
set atom 1 mass 1.0             # set mass of atom type 1
Setting atom values ...
  1 settings made for mass

# --- Other variables ---
variable center_x equal ${half_box}
variable center_x equal 100
variable center_y equal ${half_box}
variable center_y equal 100
variable vel_scale equal 9      # scaling factor for initial velocity magnitude (adjust if needed)
variable dist atom sqrt((x-${center_x})^2+(y-${center_y})^2)
variable dist atom sqrt((x-100)^2+(y-${center_y})^2)
variable dist atom sqrt((x-100)^2+(y-100)^2)

# --- Interactions ---
pair_style lj/expand 2.5
pair_coeff 1 1 ${epsilon} ${sigma} ${delta} ${cutoff}
pair_coeff 1 1 5 ${sigma} ${delta} ${cutoff}
pair_coeff 1 1 5 1 ${delta} ${cutoff}
pair_coeff 1 1 5 1 0 ${cutoff}
pair_coeff 1 1 5 1 0 2

# --- Initial Velocities ---
variable vx_init atom v_vel_scale*(${half_box}-x)
variable vx_init atom v_vel_scale*(100-x)
variable vy_init atom v_vel_scale*(${half_box}-y)
variable vy_init atom v_vel_scale*(100-y)
# Apply the calculated velocities to all atoms, initialize @ zero total linear momentum
velocity all set v_vx_init v_vy_init 0.0 sum yes

# --- Integration ---
fix 1 all nve
fix 2 all langevin 5.0 0.1 0.1 48279

# --- Simulation Settings ---
timestep 0.0001 # timestep for integration (in lj time units) - Keep it small for stability
thermo 100      # output thermodynamic info every 100 steps
thermo_style custom step temp pe ke etotal press vol atoms  # Added 'atoms' to check count

# --- Output ---
# dump atom positions and velocities every 100 steps to a .lammpstrj file
dump 1 all custom 100 ${filename}.lammpstrj id type x y vx vy fx fy v_dist
dump 1 all custom 100 central_pair_interaction_large.in_1000_5.0.lammpstrj id type x y vx vy fx fy v_dist

# --- Run Simulation ---
run 25000
Generated 0 of 0 mixed pair_coeff terms from geometric mixing rule
Neighbor list info ...
  update: every = 1 steps, delay = 0 steps, check = yes
  max neighbors/atom: 2000, page size: 100000
  master list distance cutoff = 2.3
  ghost atom cutoff = 2.3
  binsize = 1.15, bins = 174 174 1
  1 neighbor lists, perpetual/occasional/extra = 1 0 0
  (1) pair lj/expand, perpetual
      attributes: half, newton on
      pair build: half/bin/atomonly/newton
      stencil: half/bin/3d
      bin: standard
Per MPI rank memory allocation (min/avg/max) = 10.36 | 10.36 | 10.36 Mbytes
   Step          Temp          PotEng         KinEng         TotEng         Press          Volume        Atoms   
         0   179964.67     -0.01753418     269677.07      269677.05      4495.6169      40000               1000 
       100   147324.4      -0.039682617    220765.61      220765.57      3680.4249      40000               1000 
       200   120608.16     -0.039990234    180731.33      180731.29      3013.1869      40000               1000 
       300   98745.894     -0.042451172    147970.72      147970.68      2467.1766      40000               1000 
       400   80833.921     -0.03722168     121129.63      121129.59      2019.8253      40000               1000 
       500   66179.279     -0.033530273    99169.65       99169.617      1653.8259      40000               1000 
       600   54183.548     -0.033222656    81194.047      81194.014      1354.2325      40000               1000 
       700   44362.056     -0.041700449    66476.541      66476.5        1108.9403      40000               1000 
       800   36317.006     -0.06317368     54421.034      54420.971      908.01414      40000               1000 
       900   29727.908     -0.15453008     44547.27       44547.116      743.44698      40000               1000 
      1000   24326.255     -0.34421657     36452.893      36452.549      608.53173      40000               1000 
      1100   19916.602     -0.65408358     29845.028      29844.374      498.38688      40000               1000 
      1200   16309.332     -1.1529327      24439.534      24438.381      408.27675      40000               1000 
      1300   13353.918     -1.6958571      20010.847      20009.151      334.46364      40000               1000 
      1400   10936.84      -2.1338605      16388.855      16386.721      274.13399      40000               1000 
      1500   8959.3168     -2.9854026      13425.536      13422.551      224.75911      40000               1000 
      1600   7334.6527     -3.6914138      10990.977      10987.286      184.24585      40000               1000 
      1700   6007.5697     -4.0199827      9002.3432      8998.3232      151.23653      40000               1000 
      1800   4923.2614     -4.605933       7377.5072      7372.9013      124.28556      40000               1000 
      1900   4031.8897     -4.6971087      6041.7867      6037.0896      102.2244       40000               1000 
      2000   3304.1362     -5.5456428      4951.2481      4945.7025      84.165566      40000               1000 
      2100   2706.6314     -6.157728       4055.8872      4049.7295      69.396233      40000               1000 
      2200   2216.1479     -5.6280844      3320.8976      3315.2695      57.444407      40000               1000 
      2300   1815.1845     -4.1741707      2720.054       2715.8798      47.835567      40000               1000 
      2400   1486.5541     -5.2284877      2227.6013      2222.3728      39.76832       40000               1000 
      2500   1219.3741     -4.5895692      1827.2321      1822.6425      33.445081      40000               1000 
      2600   995.88698     -2.4160133      1492.3366      1489.9206      28.405972      40000               1000 
      2700   813.55648      0.97399298     1219.1144      1220.0884      24.561739      40000               1000 
      2800   664.28465      5.059723       995.43054      1000.4903      21.632686      40000               1000 
      2900   541.89396      9.7923943      812.0281       821.8205       19.438571      40000               1000 
      3000   439.22277      17.974816      658.17532      676.15014      18.128202      40000               1000 
      3100   357.66566      21.868804      535.96199      557.83079      16.866337      40000               1000 
      3200   287.6064       30.788803      430.97819      461.76699      16.4429        40000               1000 
      3300   230.49773      41.982366      345.40085      387.38321      16.572017      40000               1000 
      3400   184.81436      49.508428      276.94432      326.45275      16.556074      40000               1000 
      3500   144.87617      61.850172      217.09694      278.94711      17.182431      40000               1000 
      3600   114.22396      70.051394      171.16461      241.216        17.56016       40000               1000 
      3700   89.944338      77.432439      134.78159      212.21403      17.968877      40000               1000 
      3800   70.166659      84.642269      105.14474      189.78701      18.417247      40000               1000 
      3900   55.788751      88.011403      83.599443      171.61085      18.552936      40000               1000 
      4000   45.951591      88.293892      68.858458      157.15235      18.425054      40000               1000 
      4100   38.134043      89.101732      57.143863      146.2456       18.362521      40000               1000 
      4200   35.156006      84.11478       52.681276      136.79606      17.750711      40000               1000 
      4300   32.835799      78.829754      49.204445      128.0342       17.100808      40000               1000 
      4400   31.442496      72.5683        47.11658       119.68488      16.347435      40000               1000 
      4500   31.098233      65.109425      46.600703      111.71013      15.453043      40000               1000 
      4600   31.897812      55.535003      47.798871      103.33387      14.345283      40000               1000 
      4700   30.764283      49.242611      46.100278      95.342889      13.525329      40000               1000 
      4800   30.475112      41.471796      45.666955      87.138751      12.548719      40000               1000 
      4900   30.56477       33.527225      45.801307      79.328532      11.554786      40000               1000 
      5000   30.160591      26.235281      45.195646      71.430927      10.612568      40000               1000 
      5100   29.312892      19.917757      43.925368      63.843125      9.758778       40000               1000 
      5200   28.205065      14.645357      42.26529       56.910646      9.0184772      40000               1000 
      5300   27.348386      9.7030552      40.981556      50.684611      8.3193682      40000               1000 
      5400   25.93586       4.972284       38.864886      43.83717       7.633787       40000               1000 
      5500   24.288245      1.1231543      36.395934      37.519089      7.0424231      40000               1000 
      5600   22.96999      -2.3771123      34.420531      32.043418      6.501437       40000               1000 
      5700   21.625237     -5.8577445      32.405418      26.547674      5.9601531      40000               1000 
      5800   19.924308     -8.1895094      29.856575      21.667066      5.5445965      40000               1000 
      5900   18.312272     -10.448743      27.440939      16.992196      5.1468015      40000               1000 
      6000   17.102732     -12.644137      25.628444      12.984307      4.7686931      40000               1000 
      6100   15.773941     -14.419596      23.637251      9.2176554      4.4414164      40000               1000 
      6200   14.48411      -15.875393      21.704438      5.8290448      4.159957       40000               1000 
      6300   13.287127     -17.29911       19.910759      2.6116491      3.8906215      40000               1000 
      6400   12.111801     -18.083994      18.149533      0.065539879    3.6998135      40000               1000 
      6500   11.149473     -18.980247      16.707485     -2.2727614      3.5044178      40000               1000 
      6600   10.366657     -19.833424      15.534436     -4.2989876      3.3212265      40000               1000 
      6700   9.7071539     -20.60497       14.54617      -6.0587997      3.1541599      40000               1000 
      6800   9.0991203     -21.235634      13.635032     -7.6006018      3.0108905      40000               1000 
      6900   8.350254      -21.697224      12.512856     -9.1843688      2.8902167      40000               1000 
      7000   7.7975902     -22.162575      11.684689     -10.477886      2.7752818      40000               1000 
      7100   7.4843843     -22.605563      11.21535      -11.390213      2.6698026      40000               1000 
      7200   7.0133239     -22.969739      10.509466     -12.460273      2.573765       40000               1000 
      7300   6.5552808     -23.194482      9.8230883     -13.371394      2.498214       40000               1000 
      7400   6.2992032     -23.520484      9.4393559     -14.081128      2.4152929      40000               1000 
      7500   6.001469      -23.890328      8.9932014     -14.897127      2.3281743      40000               1000 
      7600   5.7113387     -24.140703      8.5584411     -15.582262      2.2577319      40000               1000 
      7700   5.4859372     -24.387962      8.2206769     -16.167285      2.1939885      40000               1000 
      7800   5.3504137     -24.621309      8.0175949     -16.603714      2.1373401      40000               1000 
      7900   5.0479719     -24.60414       7.564386      -17.039754      2.1078871      40000               1000 
      8000   4.8657121     -24.67997       7.2912696     -17.388701      2.0726239      40000               1000 
      8100   4.8301606     -24.750694      7.2379956     -17.512698      2.0406197      40000               1000 
      8200   4.5856296     -24.815733      6.871566      -17.944167      2.0052311      40000               1000 
      8300   4.4786328     -24.943391      6.7112313     -18.23216       1.9672499      40000               1000 
      8400   4.260621      -25.002678      6.3845406     -18.618138      1.9349637      40000               1000 
      8500   4.2442823     -25.119969      6.360057      -18.759912      1.9007299      40000               1000 
      8600   4.1037837     -25.238848      6.1495199     -19.089328      1.8643614      40000               1000 
      8700   3.9406484     -25.271093      5.9050616     -19.366032      1.8388495      40000               1000 
      8800   3.7336054     -25.362546      5.5948077     -19.767738      1.809423       40000               1000 
      8900   3.6732243     -25.422328      5.5043267     -19.918002      1.7872375      40000               1000 
      9000   3.5231273     -25.337894      5.2794063     -20.058488      1.7807033      40000               1000 
      9100   3.4526385     -25.324314      5.1737788     -20.150535      1.7691754      40000               1000 
      9200   3.6158484     -25.555601      5.4183489     -20.137252      1.7312963      40000               1000 
      9300   3.649711      -25.758632      5.469092      -20.289541      1.6935906      40000               1000 
      9400   3.540453      -25.668845      5.3053688     -20.363476      1.6887369      40000               1000 
      9500   3.4334203     -25.573759      5.1449804     -20.428778      1.6856182      40000               1000 
      9600   3.4361795     -25.634581      5.149115      -20.485466      1.6667508      40000               1000 
      9700   3.3732797     -25.568946      5.0548597     -20.514086      1.6608623      40000               1000 
      9800   3.3878217     -25.64558       5.0766508     -20.568929      1.6416728      40000               1000 
      9900   3.3557867     -25.677077      5.0286464     -20.64843       1.6278635      40000               1000 
     10000   3.3390545     -25.609906      5.0035731     -20.606333      1.6260222      40000               1000 
     10100   3.2976526     -25.568221      4.9415324     -20.626689      1.6215637      40000               1000 
     10200   3.2471386     -25.6145        4.8658372     -20.748663      1.6057251      40000               1000 
     10300   3.2910159     -25.692236      4.9315874     -20.760648      1.5876663      40000               1000 
     10400   3.1953858     -25.75508       4.7882856     -20.966794      1.5683742      40000               1000 
     10500   3.1836238     -25.839364      4.7706603     -21.068703      1.5481434      40000               1000 
     10600   3.1298711     -25.875843      4.6901118     -21.185732      1.5339953      40000               1000 
     10700   3.0754958     -25.945045      4.6086305     -21.336415      1.5181396      40000               1000 
     10800   3.0704278     -25.99486       4.601036      -21.393824      1.5047829      40000               1000 
     10900   2.9802165     -25.992272      4.4658544     -21.526418      1.4970138      40000               1000 
     11000   3.0476883     -26.042179      4.5669609     -21.475218      1.4875113      40000               1000 
     11100   3.0347669     -26.041098      4.5475982     -21.493499      1.4814881      40000               1000 
     11200   3.0104091     -25.981108      4.511098      -21.47001       1.4810743      40000               1000 
     11300   2.9637948     -26.026496      4.4412465     -21.585249      1.4666561      40000               1000 
     11400   3.0366395     -26.141383      4.5504042     -21.590979      1.4462042      40000               1000 
     11500   3.0397854     -26.141912      4.5551184     -21.586794      1.4383971      40000               1000 
     11600   3.0597589     -26.13141       4.5850487     -21.546361      1.432298       40000               1000 
     11700   2.9322663     -26.12527       4.3940011     -21.731268      1.4221849      40000               1000 
     11800   2.9653885     -26.213735      4.4436347     -21.7701        1.4058932      40000               1000 
     11900   3.008279      -26.276113      4.5079061     -21.768207      1.3946472      40000               1000 
     12000   2.9338108     -26.233401      4.3963155     -21.837086      1.3942058      40000               1000 
     12100   2.8079433     -26.16389       4.2077031     -21.956187      1.3950667      40000               1000 
     12200   2.7063411     -26.164794      4.0554522     -22.109342      1.3866355      40000               1000 
     12300   2.7896957     -26.253105      4.1803591     -22.072745      1.3708251      40000               1000 
     12400   2.8766156     -26.386507      4.3106085     -22.075898      1.3485134      40000               1000 
     12500   2.8251077     -26.470009      4.2334239     -22.236585      1.331422       40000               1000 
     12600   2.7478571     -26.400919      4.1176639     -22.283255      1.3334211      40000               1000 
     12700   2.6206108     -26.292097      3.9269853     -22.365111      1.3410696      40000               1000 
     12800   2.6830753     -26.301778      4.0205884     -22.28119       1.3367877      40000               1000 
     12900   2.7078168     -26.410351      4.0576634     -22.352688      1.3180454      40000               1000 
     13000   2.6777968     -26.441704      4.0126786     -22.429025      1.3064133      40000               1000 
     13100   2.6493726     -26.439513      3.9700848     -22.469428      1.2998275      40000               1000 
     13200   2.6410526     -26.414752      3.9576174     -22.457134      1.2975438      40000               1000 
     13300   2.5855056     -26.374454      3.8743801     -22.500074      1.2969344      40000               1000 
     13400   2.5618558     -26.341417      3.838941      -22.502476      1.2943461      40000               1000 
     13500   2.6107676     -26.387186      3.9122352     -22.474951      1.2853252      40000               1000 
     13600   2.6182796     -26.426231      3.923492      -22.502739      1.2746062      40000               1000 
     13700   2.5678371     -26.42914       3.8479038     -22.581236      1.2687834      40000               1000 
     13800   2.537807      -26.429006      3.8029038     -22.626102      1.2629361      40000               1000 
     13900   2.5008195     -26.472331      3.7474781     -22.724853      1.2514152      40000               1000 
     14000   2.4589548     -26.47181       3.6847438     -22.787066      1.2431152      40000               1000 
     14100   2.4472948     -26.569332      3.6672712     -22.902061      1.2244944      40000               1000 
     14200   2.4478972     -26.679197      3.6681739     -23.011023      1.2059689      40000               1000 
     14300   2.4136089     -26.665176      3.616793      -23.048383      1.2021127      40000               1000 
     14400   2.3094306     -26.626013      3.4606818     -23.165332      1.199978       40000               1000 
     14500   2.2676833     -26.638279      3.3981235     -23.240155      1.1933238      40000               1000 
     14600   2.2555947     -26.694354      3.3800086     -23.314345      1.181717       40000               1000 
     14700   2.2067616     -26.704637      3.3068323     -23.397804      1.1770447      40000               1000 
     14800   2.2261831     -26.719327      3.3359354     -23.383392      1.1738703      40000               1000 
     14900   2.2524985     -26.740916      3.375369      -23.365547      1.1697662      40000               1000 
     15000   2.2356501     -26.779428      3.3501216     -23.429307      1.1631095      40000               1000 
     15100   2.256759      -26.803513      3.3817534     -23.42176       1.1597758      40000               1000 
     15200   2.1661193     -26.778716      3.2459297     -23.532786      1.1576115      40000               1000 
     15300   2.1384966     -26.767856      3.2045371     -23.563318      1.155248       40000               1000 
     15400   2.1655437     -26.830991      3.2450672     -23.585924      1.145328       40000               1000 
     15500   2.1800999     -26.892268      3.2668797     -23.625388      1.1360228      40000               1000 
     15600   2.1878031     -26.923669      3.2784229     -23.645246      1.1314516      40000               1000 
     15700   2.1452319     -26.925774      3.2146301     -23.711144      1.1279762      40000               1000 
     15800   2.0736137     -26.918358      3.1073102     -23.811047      1.1255716      40000               1000 
     15900   2.0722369     -26.941355      3.1052469     -23.836108      1.1207669      40000               1000 
     16000   2.0716621     -26.962349      3.1043856     -23.857964      1.1165888      40000               1000 
     16100   2.0169495     -26.966986      3.0223988     -23.944587      1.1131228      40000               1000 
     16200   1.9918308     -26.97968       2.9847585     -23.994922      1.1102055      40000               1000 
     16300   1.9766411     -27.005886      2.9619968     -24.043889      1.105678       40000               1000 
     16400   1.94646       -27.053416      2.9167703     -24.136645      1.0967642      40000               1000 
     16500   1.9737898     -27.141063      2.957724      -24.183339      1.0846889      40000               1000 
     16600   1.9498368     -27.210236      2.9218305     -24.288405      1.0728622      40000               1000 
     16700   1.8966453     -27.189966      2.842123      -24.347843      1.0729473      40000               1000 
     16800   1.8456684     -27.152538      2.765734      -24.386804      1.0756449      40000               1000 
     16900   1.8485405     -27.195624      2.7700379     -24.425586      1.0709334      40000               1000 
     17000   1.8152092     -27.255934      2.720091      -24.535843      1.061684       40000               1000 
     17100   1.725738      -27.268398      2.5860184     -24.68238       1.0575857      40000               1000 
     17200   1.7157088     -27.286088      2.5709897     -24.715098      1.0543246      40000               1000 
     17300   1.693126      -27.288924      2.5371493     -24.751775      1.0509138      40000               1000 
     17400   1.6994692     -27.308926      2.5466545     -24.762271      1.0477542      40000               1000 
     17500   1.6919697     -27.328135      2.5354165     -24.792718      1.0425557      40000               1000 
     17600   1.6640926     -27.329757      2.4936428     -24.836114      1.0392464      40000               1000 
     17700   1.6224876     -27.349101      2.4312976     -24.917803      1.0341425      40000               1000 
     17800   1.6432482     -27.394622      2.4624074     -24.932215      1.0266328      40000               1000 
     17900   1.6101477     -27.422284      2.4128064     -25.009478      1.0203267      40000               1000 
     18000   1.600105      -27.428442      2.3977574     -25.030685      1.016969       40000               1000 
     18100   1.6235965     -27.473247      2.4329594     -25.040288      1.0120251      40000               1000 
     18200   1.6002478     -27.501086      2.3979713     -25.103114      1.0090018      40000               1000 
     18300   1.5683882     -27.468637      2.3502297     -25.118408      1.0124721      40000               1000 
     18400   1.5242135     -27.437867      2.2840339     -25.153834      1.0153502      40000               1000 
     18500   1.5122602     -27.473494      2.266122      -25.207372      1.0086243      40000               1000 
     18600   1.5716133     -27.564295      2.3550625     -25.209233      0.99602852     40000               1000 
     18700   1.5856039     -27.630418      2.3760274     -25.25439       0.98708223     40000               1000 
     18800   1.539238      -27.608353      2.3065481     -25.301805      0.98757411     40000               1000 
     18900   1.4827913     -27.59896       2.2219628     -25.376998      0.98727486     40000               1000 
     19000   1.4395956     -27.597813      2.1572341     -25.440579      0.98533417     40000               1000 
     19100   1.4173163     -27.637344      2.1238485     -25.513495      0.97908839     40000               1000 
     19200   1.4502447     -27.698214      2.1731916     -25.525023      0.97063596     40000               1000 
     19300   1.4090781     -27.760545      2.1115036     -25.649041      0.96131708     40000               1000 
     19400   1.3544035     -27.748875      2.0295736     -25.719301      0.95925293     40000               1000 
     19500   1.301425      -27.735261      1.9501854     -25.785076      0.95946672     40000               1000 
     19600   1.2869111     -27.741098      1.9284363     -25.812661      0.95705155     40000               1000 
     19700   1.3088569     -27.794822      1.9613221     -25.8335        0.94963868     40000               1000 
     19800   1.2796469     -27.824147      1.9175508     -25.906597      0.94416611     40000               1000 
     19900   1.2619793     -27.835123      1.8910759     -25.944047      0.94220169     40000               1000 
     20000   1.2499203     -27.879812      1.8730056     -26.006806      0.9360112      40000               1000 
     20100   1.2508652     -27.918745      1.8744215     -26.044323      0.9299953      40000               1000 
     20200   1.2252924     -27.945686      1.8361006     -26.109586      0.92412796     40000               1000 
     20300   1.2029506     -28.003579      1.8026214     -26.200958      0.91495023     40000               1000 
     20400   1.2171231     -28.058853      1.8238589     -26.234994      0.90785775     40000               1000 
     20500   1.1607851     -28.059427      1.7394364     -26.319991      0.90639016     40000               1000 
     20600   1.1152242     -28.058918      1.6711635     -26.387755      0.90545143     40000               1000 
     20700   1.0971059     -28.096813      1.6440132     -26.4528        0.90109351     40000               1000 
     20800   1.0792308     -28.125637      1.6172273     -26.50841       0.89709924     40000               1000 
     20900   1.0674809     -28.178735      1.5996201     -26.579115      0.89137024     40000               1000 
     21000   1.0659372     -28.242655      1.5973068     -26.645348      0.8847623      40000               1000 
     21100   1.0499109     -28.27618       1.5732914     -26.702889      0.87988523     40000               1000 
     21200   1.0241421     -28.297518      1.534677      -26.762841      0.8773369      40000               1000 
     21300   0.98599286    -28.31007       1.4775103     -26.832559      0.8767276      40000               1000 
     21400   0.97962234    -28.319716      1.4679641     -26.851752      0.87679807     40000               1000 
     21500   0.94802124    -28.36529       1.4206098     -26.944681      0.8713939      40000               1000 
     21600   0.96674463    -28.44542       1.4486668     -26.996753      0.86321116     40000               1000 
     21700   0.95191624    -28.472891      1.4264465     -27.046444      0.85888989     40000               1000 
     21800   0.92196332    -28.494541      1.381562      -27.112979      0.85704509     40000               1000 
     21900   0.91590818    -28.517457      1.3724884     -27.144969      0.85500952     40000               1000 
     22000   0.88349471    -28.562924      1.3239168     -27.239007      0.850963       40000               1000 
     22100   0.860554      -28.58001       1.2895402     -27.29047       0.84866077     40000               1000 
     22200   0.83005603    -28.597499      1.243839      -27.35366       0.84668629     40000               1000 
     22300   0.80940042    -28.634191      1.2128865     -27.421305      0.84274314     40000               1000 
     22400   0.80578704    -28.679125      1.2074719     -27.471653      0.83762657     40000               1000 
     22500   0.78513054    -28.721907      1.1765181     -27.545389      0.83243359     40000               1000 
     22600   0.7582796     -28.745708      1.136282      -27.609426      0.82888817     40000               1000 
     22700   0.74369582    -28.770851      1.1144282     -27.656423      0.82612042     40000               1000 
     22800   0.71528629    -28.789182      1.0718565     -27.717325      0.82416149     40000               1000 
     22900   0.68271038    -28.787143      1.0230415     -27.764102      0.82321225     40000               1000 
     23000   0.65990154    -28.807697      0.98886246    -27.818835      0.8209159      40000               1000 
     23100   0.63246155    -28.828505      0.94774363    -27.880761      0.81856082     40000               1000 
     23200   0.63061807    -28.852288      0.94498117    -27.907307      0.81571412     40000               1000 
     23300   0.6269538     -28.896885      0.93949026    -27.957395      0.81035585     40000               1000 
     23400   0.60221225    -28.937952      0.90241506    -28.035537      0.80427966     40000               1000 
     23500   0.58853225    -28.980527      0.88191558    -28.098611      0.79875543     40000               1000 
     23600   0.55566267    -29.012241      0.83266051    -28.17958       0.79425912     40000               1000 
     23700   0.53206264    -29.040672      0.79729586    -28.243376      0.78998322     40000               1000 
     23800   0.51980346    -29.08976       0.77892549    -28.310835      0.78412047     40000               1000 
     23900   0.51756713    -29.125773      0.77557434    -28.350199      0.77903024     40000               1000 
     24000   0.50259399    -29.168497      0.75313709    -28.41536       0.77415351     40000               1000 
     24100   0.47478585    -29.205791      0.7114666     -28.494325      0.7707668      40000               1000 
     24200   0.45354313    -29.226201      0.67963438    -28.546567      0.76912659     40000               1000 
     24300   0.42972954    -29.256082      0.64394972    -28.612132      0.76695756     40000               1000 
     24400   0.41266451    -29.28144       0.61837777    -28.663062      0.76449179     40000               1000 
     24500   0.39573018    -29.331758      0.59300167    -28.738756      0.76005029     40000               1000 
     24600   0.37711681    -29.365855      0.56510955    -28.800746      0.7563876      40000               1000 
     24700   0.36011646    -29.406585      0.53963451    -28.86695       0.75258226     40000               1000 
     24800   0.34005931    -29.444047      0.50957888    -28.934468      0.74924844     40000               1000 
     24900   0.32653145    -29.479338      0.48930737    -28.990031      0.74652299     40000               1000 
     25000   0.30669606    -29.516329      0.45958405    -29.056745      0.74393268     40000               1000 
Loop time of 14.6015 on 4 procs for 25000 steps with 1000 atoms

Performance: 14793.007 tau/day, 1712.154 timesteps/s, 1.712 Matom-step/s
99.8% CPU use with 1 MPI tasks x 4 OpenMP threads

MPI task timing breakdown:
Section |  min time  |  avg time  |  max time  |%varavg| %total
---------------------------------------------------------------
Pair    | 9.5689     | 9.5689     | 9.5689     |   0.0 | 65.53
Neigh   | 0.5929     | 0.5929     | 0.5929     |   0.0 |  4.06
Comm    | 2.094      | 2.094      | 2.094      |   0.0 | 14.34
Output  | 0.80346    | 0.80346    | 0.80346    |   0.0 |  5.50
Modify  | 1.3117     | 1.3117     | 1.3117     |   0.0 |  8.98
Other   |            | 0.2305     |            |       |  1.58

Nlocal:           1000 ave        1000 max        1000 min
Histogram: 1 0 0 0 0 0 0 0 0 0
Nghost:           4600 ave        4600 max        4600 min
Histogram: 1 0 0 0 0 0 0 0 0 0
Neighs:          25918 ave       25918 max       25918 min
Histogram: 1 0 0 0 0 0 0 0 0 0

Total # of neighbors = 25918
Ave neighs/atom = 25.918
Neighbor list builds = 785
Dangerous builds = 0
Total wall time: 0:00:14
