LAMMPS (29 Aug 2024 - Update 1)
  using 4 OpenMP thread(s) per MPI task
# LAMMPS Input Script: Gradually lower velocity for atoms closer to the center

# --- Initialization ---
units lj          # Use Lennard-Jones units
atom_style ellipsoid
dimension 3       # 3D simulation
boundary f f p    # Set boundary conditions: fixed (non-periodic) in x and y, periodic in z (standard for 2D)

# --- Define the box for the simulation ---
variable box_size equal 200
variable half_box equal ${box_size}/2
variable half_box equal 200/2
region box block 0 ${box_size} 0 ${box_size} -0.5 0.5 units box # Define simulation box boundaries
region box block 0 200 0 ${box_size} -0.5 0.5 units box 
region box block 0 200 0 200 -0.5 0.5 units box 
create_box 1 box                     # Create the simulation box with 1 atom type
Created orthogonal box = (0 0 -0.5) to (200 200 0.5)
  1 by 1 by 1 MPI processor grid
create_atoms 1 random 100 12345 NULL overlap 3.9 maxtry 50
Created 100 atoms
  using lattice units in orthogonal box = (0 0 -0.5) to (200 200 0.5)
  create_atoms CPU = 0.002 seconds

# --- Define the variables for lj/expand ---
variable	epsilon equal 200.0	# energy (strength of attraction between particles)
variable	sigma equal 1.0		# distance where particles bond (potential energy is 0)
variable	delta equal 0.0		# radius difference between particles (for lj/expand)
variable	cutoff equal 2.0	# cutoff distance (particles greater than this have the interaction ignored)

# Set ellipsoid as a sphere
set type 1 shape 0.5 0.5 0.5
Setting atom values ...
  100 settings made for shape
set atom 1 mass 1.0                           # Set mass of atom type 1
Setting atom values ...
  1 settings made for mass

# --- Other variables ---
variable center_x equal ${half_box}
variable center_x equal 100
variable center_y equal ${half_box}
variable center_y equal 100
variable vel_scale equal 10              # Scaling factor for initial velocity magnitude (adjust if needed)
variable dist atom sqrt((x-${center_x})^2+(y-${center_y})^2)
variable dist atom sqrt((x-100)^2+(y-${center_y})^2)
variable dist atom sqrt((x-100)^2+(y-100)^2)

# --- Interactions ---
pair_style lj/expand 2.5
pair_coeff 1 1 ${epsilon} ${sigma} ${delta} ${cutoff}
pair_coeff 1 1 200 ${sigma} ${delta} ${cutoff}
pair_coeff 1 1 200 1 ${delta} ${cutoff}
pair_coeff 1 1 200 1 0 ${cutoff}
pair_coeff 1 1 200 1 0 2

# --- Initial Velocities --
variable vx_init atom v_vel_scale*(${half_box}-x)
variable vx_init atom v_vel_scale*(100-x)
variable vy_init atom v_vel_scale*(${half_box}-y)
variable vy_init atom v_vel_scale*(100-y)
# Apply the calculated velocities to all atoms, initializing at zero total linear momentum
velocity all set v_vx_init v_vy_init 0.0 sum yes

# --- Integration ---
fix 1 all nve
fix 2 all langevin 5.0 0.1 0.1 48279

# --- Simulation Settings ---
timestep 0.0001 # Timestep for integration (in lj time units) - Keep it small for stability
thermo 100     # Output thermodynamic info every 100 steps
thermo_style custom step temp pe ke etotal press vol atoms # Added 'atoms' to check count

# --- Output ---
# Dump atom positions and velocities every 100 steps to log.lammpstrj file
dump 1 all custom 100 central_pair_interaction.in.lammpstrj id type x y z vx vy vz fx fy fz v_dist

# --- Run Simulation ---
run 25000
Generated 0 of 0 mixed pair_coeff terms from geometric mixing rule
Neighbor list info ...
  update: every = 1 steps, delay = 0 steps, check = yes
  max neighbors/atom: 2000, page size: 100000
  master list distance cutoff = 2.3
  ghost atom cutoff = 2.3
  binsize = 1.15, bins = 174 174 1
  1 neighbor lists, perpetual/occasional/extra = 1 0 0
  (1) pair lj/expand, perpetual
      attributes: half, newton on
      pair build: half/bin/atomonly/newton
      stencil: half/bin/3d
      bin: standard
Per MPI rank memory allocation (min/avg/max) = 10.01 | 10.01 | 10.01 Mbytes
   Step          Temp          PotEng         KinEng         TotEng         Press          Volume        Atoms   
         0   219774.12     -0.86132812     326364.56      326363.7       547.9367       40000                100 
       100   179941.24     -1.4765625      267212.75      267211.27      449.34731      40000                100 
       200   147332.49     -0.984375       218788.75      218787.77      368.64308      40000                100 
       300   120538.38     -1.3535156      178999.49      178998.14      302.32583      40000                100 
       400   98680.775     -0.73828125     146540.95      146540.21      248.23129      40000                100 
       500   80812.933     -1.1074219      120007.21      120006.1       204.00656      40000                100 
       600   66150.826     -1.4765625      98233.976      98232.499      167.71603      40000                100 
       700   54190.008     -1.6077883      80472.161      80470.554      138.11236      40000                100 
       800   44383.499     -2.3302305      65909.496      65907.166      113.83773      40000                100 
       900   36354.144     -4.9139268      53985.904      53980.99       93.952662      40000                100 
      1000   29786.053     -6.9912933      44232.289      44225.297      77.689631      40000                100 
      1100   24353.356     -9.865665       36164.734      36154.868      64.310682      40000                100 
      1200   19959.815     -19.632132      29640.325      29620.693      53.343624      40000                100 
      1300   16346.434     -23.437428      24274.454      24251.017      44.46497       40000                100 
      1400   13398.542     -32.249316      19896.835      19864.586      37.093949      40000                100 
      1500   10967.011     -36.07413       16286.012      16249.938      31.070384      40000                100 
      1600   8982.8637     -42.169359      13339.553      13297.383      26.183403      40000                100 
      1700   7370.4844     -68.530225      10945.169      10876.639      22.107387      40000                100 
      1800   6029.705      -83.636999      8954.1119      8870.4749      18.924368      40000                100 
      1900   4952.223      -112.09108      7354.0511      7241.96        16.049676      40000                100 
      2000   4066.2341     -120.97074      6038.3576      5917.3868      14.130178      40000                100 
      2100   3354.7073     -158.80092      4981.7404      4822.9394      12.098042      40000                100 
      2200   2751.8177     -182.76247      4086.4493      3903.6868      10.614113      40000                100 
      2300   2273.2314     -222.75886      3375.7486      3152.9897      9.3545856      40000                100 
      2400   1875.4752     -266.33885      2785.0807      2518.7419      8.5435694      40000                100 
      2500   1551.5942     -308.09441      2304.1174      1996.023       8.0905117      40000                100 
      2600   1293.5032     -361.85682      1920.8522      1558.9954      7.5301873      40000                100 
      2700   1100.6016     -442.14813      1634.3933      1192.2452      6.7650851      40000                100 
      2800   932.77291     -501.87831      1385.1678      883.28946      6.6166096      40000                100 
      2900   797.01697     -571.57212      1183.5702      611.99808      6.9689173      40000                100 
      3000   628.36954     -544.63441      933.12877      388.49436      8.7750968      40000                100 
      3100   485.77157     -516.07837      721.37078      205.29241      9.7025817      40000                100 
      3200   458.5995      -620.12152      681.02025      60.89873       8.4158282      40000                100 
      3300   421.60353     -694.9279       626.08124     -68.846653      6.9018697      40000                100 
      3400   360.94187     -713.34764      535.99868     -177.34896      5.3226868      40000                100 
      3500   297.53049     -698.05976      441.83278     -256.22698      4.1094657      40000                100 
      3600   216.68094     -650.14097      321.7712      -328.36977      3.5554954      40000                100 
      3700   160.03913     -615.92686      237.6581      -378.26875      3.410491       40000                100 
      3800   132.11584     -611.43785      196.19202     -415.24583      3.0675981      40000                100 
      3900   100.60999     -591.90809      149.40584     -442.50226      3.3377003      40000                100 
      4000   85.688955     -592.38794      127.2481      -465.13984      3.3470165      40000                100 
      4100   89.943118     -621.14479      133.56553     -487.57926      2.9734274      40000                100 
      4200   83.338969     -639.13868      123.75837     -515.38031      3.2022882      40000                100 
      4300   80.107588     -657.13794      118.95977     -538.17817      3.2169903      40000                100 
      4400   72.789822     -670.00673      108.09289     -561.91384      3.3007089      40000                100 
      4500   80.66182      -705.36327      119.7828      -585.58047      3.1129478      40000                100 
      4600   61.983223     -699.75875      92.045085     -607.71367      3.6813689      40000                100 
      4700   64.651955     -724.98032      96.008154     -628.97217      3.5786403      40000                100 
      4800   60.87099      -737.2314       90.39342      -646.83798      3.6505483      40000                100 
      4900   60.034401     -756.24712      89.151086     -667.09603      3.7118199      40000                100 
      5000   63.4985       -777.80042      94.295272     -683.50515      3.6037612      40000                100 
      5100   64.079913     -796.84403      95.158671     -701.68536      3.4218197      40000                100 
      5200   59.99678      -807.92263      89.095218     -718.82742      3.2917436      40000                100 
      5300   58.111104     -825.04667      86.294989     -738.75168      3.4077405      40000                100 
      5400   56.430434     -842.24263      83.799194     -758.44344      3.6025344      40000                100 
      5500   51.66535      -853.01103      76.723045     -776.28798      3.7464807      40000                100 
      5600   49.751213     -865.69557      73.880552     -791.81502      3.8343418      40000                100 
      5700   47.714272     -880.29485      70.855695     -809.43916      3.8540425      40000                100 
      5800   46.142789     -893.84224      68.522041     -825.3202       3.7794405      40000                100 
      5900   45.803469     -906.77697      68.018152     -838.75882      3.7252002      40000                100 
      6000   37.687186     -908.26122      55.965472     -852.29575      3.8126635      40000                100 
      6100   33.101176     -910.61001      49.155247     -861.45477      3.700345       40000                100 
      6200   35.558333     -922.39251      52.804125     -869.58839      3.6000614      40000                100 
      6300   33.325172     -930.60573      49.487881     -881.11785      3.4845056      40000                100 
      6400   30.196308     -938.13646      44.841517     -893.29494      3.5183858      40000                100 
      6500   30.431455     -946.2724       45.19071      -901.08169      3.6934965      40000                100 
      6600   27.845972     -952.62188      41.351269     -911.27061      3.5011657      40000                100 
      6700   24.625594     -955.20832      36.569007     -918.63932      3.4400236      40000                100 
      6800   23.152833     -959.81406      34.381958     -925.4321       3.5854774      40000                100 
      6900   19.816967     -961.76289      29.428195     -932.3347       3.6141875      40000                100 
      7000   21.598663     -970.45061      32.074015     -938.37659      3.6405347      40000                100 
      7100   21.956601     -976.01228      32.605552     -943.40673      3.6851964      40000                100 
      7200   19.789692     -980.92744      29.387693     -951.53975      3.7349847      40000                100 
      7300   17.59777      -983.5174       26.132688     -957.38471      3.7003437      40000                100 
      7400   17.921962     -985.52869      26.614114     -958.91457      3.5187478      40000                100 
      7500   17.001063     -990.42961      25.246578     -965.18304      3.4168038      40000                100 
      7600   16.915936     -994.38884      25.120164     -969.26867      3.4806205      40000                100 
      7700   16.316792     -998.69425      24.230436     -974.46381      3.5259873      40000                100 
      7800   15.116569     -1000.9864      22.448105     -978.53827      3.5424877      40000                100 
      7900   14.887874     -1005.7812      22.108493     -983.67267      3.5067631      40000                100 
      8000   14.319809     -1008.822       21.264916     -987.55706      3.5348616      40000                100 
      8100   14.571916     -1013.1684      21.639296     -991.52912      3.5650956      40000                100 
      8200   13.086593     -1013.2922      19.433591     -993.85859      3.5854997      40000                100 
      8300   11.79578      -1016.8589      17.516733     -999.34217      3.6291337      40000                100 
      8400   11.553423     -1018.7084      17.156833     -1001.5516      3.6849314      40000                100 
      8500   10.81346      -1021.6565      16.057988     -1005.5985      3.6950628      40000                100 
      8600   12.159447     -1026.4316      18.056779     -1008.3748      3.6091098      40000                100 
      8700   10.222557     -1025.1029      15.180497     -1009.9224      3.5031727      40000                100 
      8800   9.0453603     -1023.3376      13.43236      -1009.9053      3.4883392      40000                100 
      8900   8.7775998     -1025.242       13.034736     -1012.2073      3.4880612      40000                100 
      9000   8.6314436     -1026.2271      12.817694     -1013.4094      3.5172154      40000                100 
      9100   10.024604     -1032.0317      14.886537     -1017.1452      3.5355274      40000                100 
      9200   8.9139421     -1031.9543      13.237204     -1018.7171      3.5777466      40000                100 
      9300   7.7472343     -1031.5559      11.504643     -1020.0512      3.6138883      40000                100 
      9400   6.7601962     -1032.4557      10.038891     -1022.4168      3.6947599      40000                100 
      9500   6.3769929     -1033.1663      9.4698344     -1023.6965      3.709662       40000                100 
      9600   6.1219916     -1033.6583      9.0911575     -1024.5671      3.6069761      40000                100 
      9700   6.2187362     -1035.4201      9.2348232     -1026.1853      3.5380693      40000                100 
      9800   6.253156      -1033.8455      9.2859366     -1024.5596      3.5982189      40000                100 
      9900   6.2369052     -1034.744       9.2618042     -1025.4822      3.5946951      40000                100 
     10000   5.3998324     -1034.245       8.018751      -1026.2263      3.5747208      40000                100 
     10100   5.8022441     -1036           8.6163325     -1027.3836      3.5637304      40000                100 
     10200   5.3161433     -1035.9206      7.8944728     -1028.0261      3.6005055      40000                100 
     10300   5.0114933     -1038.1332      7.4420676     -1030.6911      3.5187687      40000                100 
     10400   4.4380786     -1037.6095      6.5905468     -1031.0189      3.5581446      40000                100 
     10500   4.4356722     -1037.1216      6.5869732     -1030.5346      3.6169013      40000                100 
     10600   4.1482036     -1038.7447      6.1600823     -1032.5846      3.6310978      40000                100 
     10700   4.0950256     -1038.839       6.081113      -1032.7579      3.5767048      40000                100 
     10800   3.9403996     -1038.324       5.8514935     -1032.4725      3.5962593      40000                100 
     10900   4.0792163     -1040.2308      6.0576361     -1034.1732      3.5162648      40000                100 
     11000   3.7866818     -1038.2812      5.6232225     -1032.658       3.5256696      40000                100 
     11100   4.1229271     -1040.4499      6.1225468     -1034.3274      3.5578006      40000                100 
     11200   3.8614647     -1040.5886      5.734275      -1034.8544      3.5767643      40000                100 
     11300   3.5541667     -1040.3367      5.2779375     -1035.0588      3.611574       40000                100 
     11400   3.4078255     -1039.5356      5.0606208     -1034.475       3.6189462      40000                100 
     11500   3.4505656     -1041.0522      5.1240899     -1035.9281      3.5801585      40000                100 
     11600   3.272237      -1040.0123      4.859272      -1035.153       3.6148745      40000                100 
     11700   2.789767      -1040.9345      4.1428039     -1036.7917      3.5905472      40000                100 
     11800   3.0078675     -1039.5659      4.4666833     -1035.0992      3.5586598      40000                100 
     11900   3.3953029     -1040.4596      5.0420249     -1035.4175      3.5552126      40000                100 
     12000   2.7917493     -1040.0043      4.1457477     -1035.8585      3.5675706      40000                100 
     12100   3.0007441     -1040.8705      4.456105      -1036.4144      3.6166592      40000                100 
     12200   3.5837754     -1041.8654      5.3219065     -1036.5435      3.6028984      40000                100 
     12300   3.2931277     -1040.7241      4.8902946     -1035.8338      3.5536023      40000                100 
     12400   3.0512054     -1040.9259      4.53104       -1036.3949      3.5838362      40000                100 
     12500   3.2966217     -1040.6877      4.8954832     -1035.7922      3.5767704      40000                100 
     12600   2.9471972     -1040.3577      4.3765878     -1035.9811      3.5612748      40000                100 
     12700   3.089771      -1040.0572      4.5883099     -1035.4689      3.5574036      40000                100 
     12800   2.9743634     -1040.2387      4.4169297     -1035.8218      3.5171681      40000                100 
     12900   2.9579084     -1040.3911      4.392494      -1035.9986      3.5470023      40000                100 
     13000   2.9408399     -1041.3246      4.3671472     -1036.9575      3.6317571      40000                100 
     13100   2.8349087     -1042.0284      4.2098394     -1037.8186      3.6133034      40000                100 
     13200   2.5268302     -1041.2677      3.7523429     -1037.5154      3.5936565      40000                100 
     13300   2.6811687     -1041.5288      3.9815356     -1037.5473      3.5752263      40000                100 
     13400   2.4764043     -1040.8853      3.6774603     -1037.2078      3.5887855      40000                100 
     13500   2.6959624     -1040.8389      4.0035042     -1036.8354      3.55782        40000                100 
     13600   2.5565276     -1041.5441      3.7964436     -1037.7476      3.5663261      40000                100 
     13700   2.5307444     -1042.0757      3.7581554     -1038.3176      3.6137785      40000                100 
     13800   2.3352646     -1041.7568      3.4678679     -1038.2889      3.6092049      40000                100 
     13900   2.5190797     -1042.578       3.7408334     -1038.8372      3.5960266      40000                100 
     14000   2.6012804     -1042.695       3.8629014     -1038.8321      3.6215886      40000                100 
     14100   2.4440611     -1041.8085      3.6294308     -1038.1791      3.6231375      40000                100 
     14200   2.8109535     -1043.0069      4.1742659     -1038.8326      3.6004609      40000                100 
     14300   2.7301649     -1042.6406      4.0542949     -1038.5863      3.5735561      40000                100 
     14400   2.7638368     -1042.0785      4.1042976     -1037.9742      3.5647027      40000                100 
     14500   2.6851381     -1042.3602      3.9874301     -1038.3728      3.5946708      40000                100 
     14600   2.2927056     -1042.4865      3.4046679     -1039.0819      3.6044766      40000                100 
     14700   2.4104003     -1042.8837      3.5794444     -1039.3042      3.5471263      40000                100 
     14800   2.3238        -1042.6991      3.4508429     -1039.2483      3.5546015      40000                100 
     14900   2.4377989     -1042.8512      3.6201314     -1039.2311      3.6076437      40000                100 
     15000   2.2542424     -1042.2044      3.3475499     -1038.8568      3.6076937      40000                100 
     15100   2.3446332     -1043.5945      3.4817804     -1040.1127      3.5832329      40000                100 
     15200   2.2900808     -1042.0796      3.40077       -1038.6788      3.5813035      40000                100 
     15300   2.1189754     -1042.268       3.1466785     -1039.1213      3.5574109      40000                100 
     15400   2.0648439     -1042.7071      3.0662932     -1039.6408      3.559873       40000                100 
     15500   2.0811742     -1041.5413      3.0905437     -1038.4508      3.5629586      40000                100 
     15600   2.0894307     -1042.8049      3.1028046     -1039.7021      3.5959318      40000                100 
     15700   2.0936994     -1042.3411      3.1091436     -1039.2319      3.5809455      40000                100 
     15800   2.2495475     -1041.9095      3.340578      -1038.5689      3.5836449      40000                100 
     15900   2.1683102     -1044.5999      3.2199406     -1041.3799      3.5740665      40000                100 
     16000   1.9815009     -1043.1044      2.9425289     -1040.1619      3.5593517      40000                100 
     16100   2.0343071     -1042.5114      3.020946      -1039.4905      3.5496873      40000                100 
     16200   1.964096      -1042.6714      2.9166826     -1039.7547      3.5222807      40000                100 
     16300   1.7546282     -1042.2083      2.6056228     -1039.6026      3.556579       40000                100 
     16400   2.0973328     -1044.7008      3.1145393     -1041.5863      3.5839626      40000                100 
     16500   2.0876442     -1042.7801      3.1001516     -1039.68        3.5709245      40000                100 
     16600   1.8990107     -1043.3268      2.820031      -1040.5068      3.6154752      40000                100 
     16700   1.9200139     -1043.6677      2.8512207     -1040.8165      3.6326656      40000                100 
     16800   1.677238      -1043.0852      2.4906984     -1040.5945      3.5942186      40000                100 
     16900   1.6621795     -1042.5409      2.4683365     -1040.0726      3.6055104      40000                100 
     17000   1.8718115     -1043.1578      2.7796401     -1040.3781      3.5750592      40000                100 
     17100   1.7739651     -1043.5683      2.6343381     -1040.934       3.573268       40000                100 
     17200   1.9815672     -1043.1563      2.9426273     -1040.2137      3.5681998      40000                100 
     17300   1.901414      -1043.5885      2.8235998     -1040.7649      3.5678921      40000                100 
     17400   1.8218012     -1043.1553      2.7053747     -1040.4499      3.5743939      40000                100 
     17500   1.5916748     -1043.3461      2.3636371     -1040.9825      3.5504154      40000                100 
     17600   1.9210056     -1042.8796      2.8526933     -1040.0269      3.5801258      40000                100 
     17700   1.8060888     -1043.4989      2.6820419     -1040.8169      3.6351341      40000                100 
     17800   1.8844981     -1043.8269      2.7984797     -1041.0284      3.6385626      40000                100 
     17900   1.8089434     -1043.5162      2.6862809     -1040.8299      3.6013654      40000                100 
     18000   1.8144345     -1043.8662      2.6944353     -1041.1717      3.5889669      40000                100 
     18100   1.7842        -1044.5589      2.6495369     -1041.9093      3.5806696      40000                100 
     18200   1.5531591     -1043.676       2.3064413     -1041.3696      3.535132       40000                100 
     18300   1.6113421     -1043.8015      2.3928431     -1041.4087      3.5545768      40000                100 
     18400   1.7029205     -1043.3721      2.5288369     -1040.8433      3.5754217      40000                100 
     18500   1.6171066     -1043.261       2.4014033     -1040.8596      3.5770881      40000                100 
     18600   1.5739183     -1043.2324      2.3372687     -1040.8951      3.5686157      40000                100 
     18700   1.4122376     -1043.3421      2.0971729     -1041.2449      3.5469818      40000                100 
     18800   1.4778557     -1043.6712      2.1946157     -1041.4765      3.5427208      40000                100 
     18900   1.7778209     -1043.6853      2.640064      -1041.0453      3.5573273      40000                100 
     19000   1.393651      -1043.0723      2.0695718     -1041.0027      3.6329946      40000                100 
     19100   1.5469288     -1043.9884      2.2971892     -1041.6912      3.6358475      40000                100 
     19200   1.591456      -1044.85        2.3633122     -1042.4867      3.6075604      40000                100 
     19300   1.4850596     -1043.7139      2.2053135     -1041.5086      3.6208742      40000                100 
     19400   1.4910999     -1044.4102      2.2142834     -1042.1959      3.6070506      40000                100 
     19500   1.4363865     -1044.2123      2.1330339     -1042.0793      3.6119747      40000                100 
     19600   1.5239051     -1043.7218      2.2629991     -1041.4588      3.6070817      40000                100 
     19700   1.4483251     -1044.0792      2.1507628     -1041.9285      3.5846478      40000                100 
     19800   1.3272681     -1044.098       1.9709931     -1042.127       3.5822086      40000                100 
     19900   1.2180599     -1044.7625      1.808819      -1042.9537      3.5916461      40000                100 
     20000   1.2605164     -1044.4803      1.8718669     -1042.6084      3.5825548      40000                100 
     20100   1.2940727     -1043.1949      1.9216979     -1041.2732      3.5726337      40000                100 
     20200   1.3165479     -1043.9464      1.9550736     -1041.9913      3.5896582      40000                100 
     20300   1.2716276     -1043.9066      1.8883669     -1042.0182      3.5850694      40000                100 
     20400   1.3239222     -1044.2833      1.9660245     -1042.3172      3.5579056      40000                100 
     20500   1.214959      -1044.1972      1.8042141     -1042.3929      3.5377745      40000                100 
     20600   1.2826674     -1044.3908      1.904761      -1042.486       3.5413047      40000                100 
     20700   1.1567117     -1044.8078      1.7177169     -1043.0901      3.5646644      40000                100 
     20800   1.1539803     -1044.114       1.7136607     -1042.4003      3.6015437      40000                100 
     20900   1.1916012     -1044.2846      1.7695277     -1042.5151      3.6516758      40000                100 
     21000   1.206679      -1045.0492      1.7919184     -1043.2572      3.6291139      40000                100 
     21100   1.1322019     -1044.4948      1.6813198     -1042.8135      3.6315691      40000                100 
     21200   1.014769      -1044.6739      1.506932      -1043.167       3.6234793      40000                100 
     21300   1.0227624     -1045.7613      1.5188022     -1044.2425      3.6001701      40000                100 
     21400   1.0355838     -1044.8287      1.5378419     -1043.2908      3.5825103      40000                100 
     21500   1.0738303     -1045.8391      1.594638      -1044.2445      3.5696879      40000                100 
     21600   0.93379925    -1044.5821      1.3866919     -1043.1954      3.5656726      40000                100 
     21700   0.92146752    -1044.3821      1.3683793     -1043.0137      3.564861       40000                100 
     21800   0.93999678    -1044.826       1.3958952     -1043.4301      3.564608       40000                100 
     21900   0.87036906    -1045.1345      1.2924981     -1043.842       3.5810831      40000                100 
     22000   1.0235296     -1045.6357      1.5199414     -1044.1158      3.5780797      40000                100 
     22100   0.82319992    -1044.4725      1.2224519     -1043.2501      3.6166046      40000                100 
     22200   0.84915925    -1046.3604      1.2610015     -1045.0994      3.6169025      40000                100 
     22300   0.88182077    -1045.7881      1.3095039     -1044.4786      3.6418943      40000                100 
     22400   0.81629584    -1044.5743      1.2121993     -1043.3621      3.6367744      40000                100 
     22500   0.8864752     -1045.2639      1.3164157     -1043.9474      3.6003348      40000                100 
     22600   0.7594937     -1044.3631      1.1278481     -1043.2352      3.5759762      40000                100 
     22700   0.72895696    -1045.1506      1.0825011     -1044.0681      3.5671007      40000                100 
     22800   0.73411325    -1045.0771      1.0901582     -1043.987       3.5716557      40000                100 
     22900   0.6988164     -1044.2655      1.0377424     -1043.2277      3.5657755      40000                100 
     23000   0.72775044    -1046.4629      1.0807094     -1045.3822      3.5738104      40000                100 
     23100   0.66547793    -1045.934       0.98823472    -1044.9457      3.5817762      40000                100 
     23200   0.61853909    -1046.1745      0.91853054    -1045.2559      3.5882766      40000                100 
     23300   0.64611988    -1046.0352      0.95948802    -1045.0758      3.5745386      40000                100 
     23400   0.60328904    -1045.3195      0.89588423    -1044.4236      3.5923122      40000                100 
     23500   0.57549335    -1045.5536      0.85460762    -1044.699       3.5941005      40000                100 
     23600   0.59000618    -1045.1516      0.87615918    -1044.2755      3.5890738      40000                100 
     23700   0.53491931    -1044.8116      0.79435518    -1044.0173      3.6102229      40000                100 
     23800   0.52911464    -1046.132       0.78573524    -1045.3462      3.6070487      40000                100 
     23900   0.49527666    -1046.024       0.73548584    -1045.2886      3.6028275      40000                100 
     24000   0.47841033    -1045.1955      0.71043934    -1044.485       3.5996046      40000                100 
     24100   0.45245858    -1045.8241      0.671901      -1045.1522      3.5888562      40000                100 
     24200   0.45790642    -1045.6444      0.67999103    -1044.9644      3.5804485      40000                100 
     24300   0.42885445    -1046.6607      0.63684886    -1046.0238      3.5585583      40000                100 
     24400   0.39681684    -1045.6734      0.58927301    -1045.0841      3.5503201      40000                100 
     24500   0.41209987    -1046.6265      0.61196831    -1046.0146      3.5604732      40000                100 
     24600   0.35791139    -1045.6226      0.53149841    -1045.0911      3.5883261      40000                100 
     24700   0.32989938    -1046.5032      0.48990058    -1046.0133      3.5793195      40000                100 
     24800   0.32026575    -1046.2993      0.47559464    -1045.8237      3.5930743      40000                100 
     24900   0.33703945    -1046.0105      0.50050358    -1045.51        3.6032697      40000                100 
     25000   0.28629428    -1045.0264      0.425147      -1044.6012      3.5992479      40000                100 
Loop time of 1.73115 on 4 procs for 25000 steps with 100 atoms

Performance: 124772.886 tau/day, 14441.306 timesteps/s, 1.444 Matom-step/s
99.6% CPU use with 1 MPI tasks x 4 OpenMP threads

MPI task timing breakdown:
Section |  min time  |  avg time  |  max time  |%varavg| %total
---------------------------------------------------------------
Pair    | 0.76157    | 0.76157    | 0.76157    |   0.0 | 43.99
Neigh   | 0.31579    | 0.31579    | 0.31579    |   0.0 | 18.24
Comm    | 0.28043    | 0.28043    | 0.28043    |   0.0 | 16.20
Output  | 0.15787    | 0.15787    | 0.15787    |   0.0 |  9.12
Modify  | 0.17719    | 0.17719    | 0.17719    |   0.0 | 10.24
Other   |            | 0.0383     |            |       |  2.21

Nlocal:            100 ave         100 max         100 min
Histogram: 1 0 0 0 0 0 0 0 0 0
Nghost:            453 ave         453 max         453 min
Histogram: 1 0 0 0 0 0 0 0 0 0
Neighs:           2162 ave        2162 max        2162 min
Histogram: 1 0 0 0 0 0 0 0 0 0

Total # of neighbors = 2162
Ave neighs/atom = 21.62
Neighbor list builds = 816
Dangerous builds = 0
Total wall time: 0:00:01
